% Auto-generated by scripts/generate_dzn.py
% problem_type   = nonogram
% instance       = nonogram_94
% source_json    = instances_json/0_low_blowup/nonogram_94.json
% blowup         = 1.3571428571428572
% representation = DFA

mode = 0;

height = 5;
width = 5;
Q = 5;
S = 2;
row_q0 = [1, 1, 1, 1, 1];
row_F = [{2}, {4}, {2}, {4}, {2}];
col_q0 = [1, 1, 1, 1, 1];
col_F = [{2}, {4}, {2}, {2}, {4}];
row_d_dfa = array3d(1..5, 1..5, 1..2, [
  % k = 1
    1, 2,
    2, 3,
    3, 3,
    0, 0,
    0, 0,

  % k = 2
    1, 2,
    3, 5,
    3, 4,
    4, 5,
    5, 5,

  % k = 3
    1, 2,
    2, 3,
    3, 3,
    0, 0,
    0, 0,

  % k = 4
    1, 2,
    3, 5,
    3, 4,
    4, 5,
    5, 5,

  % k = 5
    1, 2,
    2, 3,
    3, 3,
    0, 0,
    0, 0
]);
row_d_nfa = array3d(1..5, 1..5, 1..2, [
  % k = 1
    {}, {},
    {}, {},
    {}, {},
    {}, {},
    {}, {},

  % k = 2
    {}, {},
    {}, {},
    {}, {},
    {}, {},
    {}, {},

  % k = 3
    {}, {},
    {}, {},
    {}, {},
    {}, {},
    {}, {},

  % k = 4
    {}, {},
    {}, {},
    {}, {},
    {}, {},
    {}, {},

  % k = 5
    {}, {},
    {}, {},
    {}, {},
    {}, {},
    {}, {}
]);
col_d_dfa = array3d(1..5, 1..5, 1..2, [
  % k = 1
    1, 2,
    2, 3,
    3, 3,
    0, 0,
    0, 0,

  % k = 2
    1, 2,
    3, 5,
    3, 4,
    4, 5,
    5, 5,

  % k = 3
    1, 2,
    2, 3,
    3, 3,
    0, 0,
    0, 0,

  % k = 4
    1, 2,
    2, 3,
    3, 3,
    0, 0,
    0, 0,

  % k = 5
    1, 2,
    3, 5,
    3, 4,
    4, 5,
    5, 5
]);
col_d_nfa = array3d(1..5, 1..5, 1..2, [
  % k = 1
    {}, {},
    {}, {},
    {}, {},
    {}, {},
    {}, {},

  % k = 2
    {}, {},
    {}, {},
    {}, {},
    {}, {},
    {}, {},

  % k = 3
    {}, {},
    {}, {},
    {}, {},
    {}, {},
    {}, {},

  % k = 4
    {}, {},
    {}, {},
    {}, {},
    {}, {},
    {}, {},

  % k = 5
    {}, {},
    {}, {},
    {}, {},
    {}, {},
    {}, {}
]);
